
Gurobi 10.0.3 (linux64, gurobi_cl) logging started Thu Nov  9 11:48:02 2023

Set parameter Username
Set parameter TimeLimit to value 3600
Set parameter LogFile to value "RCPSP_1137.log"
Set parameter Threads to value 32
Academic license - for non-commercial use only - expires 2024-10-30
Using license file /home/jrivera6/gurobi-licenses/v1003/compute-0-34/gurobi.lic

Gurobi Optimizer version 10.0.3 build v10.0.3rc0 (linux64)
Copyright (c) 2023, Gurobi Optimization, LLC

Read MPS format model from file RCPSP_1137.mps
Reading time = 0.07 seconds
RCPSP_1137: 42947 rows, 17020 columns, 134581 nonzeros

CPU model: Intel(R) Xeon(R) Gold 6130 CPU @ 2.10GHz, instruction set [SSE2|AVX|AVX2|AVX512]
Thread count: 32 physical cores, 32 logical processors, using up to 32 threads

Optimize a model with 42947 rows, 17020 columns and 134581 nonzeros
Model fingerprint: 0x0f08ec77
Variable types: 92 continuous, 16928 integer (16928 binary)
Coefficient statistics:
  Matrix range     [1e+00, 4e+02]
  Objective range  [1e+00, 1e+00]
  Bounds range     [1e+00, 1e+00]
  RHS range        [1e+00, 4e+02]
Presolve removed 7158 rows and 1255 columns (presolve time = 5s) ...
Presolve removed 9635 rows and 2524 columns
Presolve time: 9.55s
Presolved: 33312 rows, 14496 columns, 108341 nonzeros
Variable types: 91 continuous, 14405 integer (14405 binary)

Deterministic concurrent LP optimizer: primal and dual simplex (primal and dual model)
Showing first log only...

Root relaxation presolved: 33312 rows, 14496 columns, 108341 nonzeros


Root simplex log...

Iteration    Objective       Primal Inf.    Dual Inf.      Time
       0    7.3414928e+01   4.920649e-03   1.582539e+08     12s
    2080    7.3000000e+01   0.000000e+00   0.000000e+00     13s
Concurrent spin time: 1.70s

Solved with dual simplex (dual model)

Root relaxation: objective 7.300000e+01, 15511 iterations, 4.01 seconds (0.12 work units)
Total elapsed time = 19.95s
Total elapsed time = 20.82s

    Nodes    |    Current Node    |     Objective Bounds      |     Work
 Expl Unexpl |  Obj  Depth IntInf | Incumbent    BestBd   Gap | It/Node Time

     0     0   73.00000    0    2          -   73.00000      -     -   21s
     0     0   73.00000    0    2          -   73.00000      -     -   47s
     0     0   73.00000    0    4          -   73.00000      -     -   48s
H    0     0                      73.0000000   73.00000  0.00%     -   50s
     0     0   73.00000    0   16   73.00000   73.00000  0.00%     -   50s

Cutting planes:
  Gomory: 3
  MIR: 1
  RLT: 30
  Relax-and-lift: 1

Explored 1 nodes (20531 simplex iterations) in 50.22 seconds (5.33 work units)
Thread count was 32 (of 32 available processors)

Solution count 1: 73 

Optimal solution found (tolerance 1.00e-04)
Best objective 7.300000000000e+01, best bound 7.300000000000e+01, gap 0.0000%

Wrote result file 'RCPSP_1137.sol'

